% demand
num_movements = 18;
loading_factor = [1050, 1200, 1400, 950, 1650, 1650, 1400, 1850, 1650, 1000, 1000, 1700, 1850, 1700, 1000, 1400, 1450, 1950];
pickup_time = [0, 0, 1, 1, 1, 3, 4, 4, 4, 4, 5, 5, 6, 6, 6, 9, 9, 9];
delivery_time = [2, 2, 4, 3, 2, 4, 9, 6, 5, 5, 7, 6, 9, 8, 9, 10, 10, 10];

% transporter definition
total_capacity = 7000;
num_decks = 3;
capacity = [3000, 1000, 3000];

% ways out of decks
num_ways_out = 1;
paths_out = array3d(decks, ways_out, decks, [
% ways out of deck d1
2, 3, 0, 

% ways out of deck d2
3, 0, 0, 

% ways out of deck d3
0, 0, 0,	

]);

